n = 50;
C = 5801;
w = [95,249,246,109,364,222,288,37,412,92,16,227,290,478,224,3,449,351,108,309,149,426,206,306,227,255,284,51,94,142,103,131,451,354,227,9,90,59,284,112,302,246,399,6,475,500,403,31,246,466];
p = [485,1255,1240,555,1830,1120,1450,195,2070,470,90,1145,1460,2400,1130,25,2255,1765,550,1555,755,2140,1040,1540,1145,1285,1430,265,480,720,525,665,2265,1780,1145,55,460,305,1430,570,1520,1240,2005,40,2385,2510,2025,165,1240,2340];
